 0.2	 0.2
 0.2	 0.4
 0.2	 0.6
 0.4	 0.4
 0.4	 0.6
 0.4	 0.8
 0.6	 0.6
 0.6	 0.8
 0.6	 1
 0.8	 0.6
 0.8	 0.8
 0.8	 1
 0.8	 1.5
 1	 0.8
 1	 1
 1	 1.5
 1	 2
 1.5	 1.5
 1.5	 2
 1.5	 2.5
 1.5	 3
 2	 1.5
 2	 2
 2	 2.5
 2	 3
 2.5	 2
 2.5	 2.5
 2.5	 3
 3	 3